NAME : lc108.826440.tour
COMMENT : Cost = 0_826440
COMMENT : Found by LKH [Keld Helsgaun] Fri Sep 15 17:42:00 2017
TYPE : TOUR
DIMENSION : 116
TOUR_SECTION
1
82
79
77
72
71
74
78
80
104
81
115
68
66
64
63
75
73
62
65
67
70
116
44
43
42
41
45
47
46
49
52
51
53
50
106
48
114
99
97
96
95
93
94
98
102
101
100
3
76
111
14
18
19
20
16
17
15
13
108
6
4
8
9
11
12
10
7
5
2
109
91
88
87
84
83
85
86
89
90
92
112
33
34
32
36
38
39
40
105
37
35
113
58
56
55
54
57
59
61
60
69
103
110
21
25
26
28
107
30
31
29
27
24
23
22
-1
EOF
